NAME : R203.3914.tour
COMMENT : Cost = 0_3914
COMMENT : Found by LKH [Keld Helsgaun] Wed Sep 13 18:32:20 2017
TYPE : TOUR
DIMENSION : 28
TOUR_SECTION
1
19
8
20
12
21
10
11
2
28
7
6
9
18
17
15
14
27
3
16
24
23
22
5
26
25
4
13
-1
EOF
